Mn1 Ga1 O3
1.0
-3.713298 0.000000 -0.000000
-0.000000 -3.713298 -0.000000
0.000000 0.000000 11.856649
Mn Ga O
1 1 3
direct
0.500000 0.500000 0.578296 Mn
0.000000 0.000000 0.421704 Ga
1.000000 0.500000 0.578296 O
0.500000 0.500000 0.421704 O
0.500000 1.000000 0.578296 O
