Zn4 O4
1.0
2.608000 2.608000 0.000000
2.608000 -2.608000 -0.000000
-0.000000 -0.000000 -18.912000
Zn O Zn O
2 2 2 2
direct
0.500000 0.500000 0.396574 Zn
0.000000 0.000000 0.396574 Zn
0.000000 0.500000 0.465525 O
0.500000 0.000000 0.465525 O
0.500000 0.500000 0.534475 Zn
1.000000 0.000000 0.534475 Zn
1.000000 0.500000 0.603426 O
0.500000 0.000000 0.603426 O
