Zn4 Fe2 Se2 O4
1.0
2.608000 2.608000 0.000000
2.608000 -2.608000 -0.000000
-0.000000 -0.000000 -18.912000
Zn O Zn O Fe Se
2 2 2 2 2 2
Selective dynamics
direct
0.500000 0.500000 0.396574 F F F Zn
0.000000 0.000000 0.396574 F F F Zn
0.000000 0.500000 0.465525 F F F O
0.500000 0.000000 0.465525 F F F O
0.500000 0.500000 0.534475 T T T Zn
1.000000 0.000000 0.534475 T T T Zn
1.000000 0.500000 0.603426 T T T O
0.500000 0.000000 0.603426 T T T O
-0.500000 -0.500000 0.762056 T T T Fe
0.000000 0.000000 0.762056 T T T Fe
-0.500000 0.000000 0.998804 T T T Se
0.000000 -0.500000 0.834857 T T T Se
