Li2 Fe2 As2
1.0
3.663700 0.000000 0.000000
0.000000 3.663700 0.000000
0.000000 0.000000 9.539061
Li Fe As
2 2 2
Selective dynamics
direct
0.000000 0.500000 0.483330 F F F Li
0.500000 0.000000 0.679542 T T T Li
0.000000 0.000000 0.262080 F F F Fe
0.500000 0.500000 0.262080 F F F Fe
0.000000 0.500000 0.737920 T T T As
0.500000 0.000000 0.424952 F F F As
