Zn4 O4
1.0
2.608000 2.608000 0.000000
2.608000 -2.608000 -0.000000
-0.000000 -0.000000 -8.912000
Zn O Zn O
2 2 2 2
direct
0.500000 0.500000 0.280521 Zn
0.000000 0.000000 0.280521 Zn
0.000000 0.500000 0.426840 O
0.500000 0.000000 0.426840 O
0.500000 0.500000 0.573160 Zn
1.000000 0.000000 0.573160 Zn
1.000000 0.500000 0.719479 O
0.500000 0.000000 0.719479 O
