Fe2 S2
1.0
-3.595555 0.000000 -0.000000
-0.000000 -3.595555 -0.000000
0.000000 0.000000 9.243114
Fe S
2 2
direct
0.500000 0.500000 0.270472 Fe
0.000000 0.000000 0.270472 Fe
0.500000 1.000000 0.401523 S
1.000000 0.500000 0.729528 S
