Fe4 S4
1.0
-3.595555 0.000000 -0.000000
-0.000000 -3.595555 -0.000000
0.000000 0.000000 9.243114
Fe S Fe S
2 2 2 2
Selective dynamics
direct
0.500000 0.500000 0.270472 F F F Fe
0.000000 0.000000 0.270472 F F F Fe
0.500000 1.000000 0.401523 F F F S
1.000000 0.500000 0.729528 T T T S
0.500000 -0.500000 1.054094 T T T Fe
-0.000000 -1.000000 1.054094 T T T Fe
0.500000 -1.000000 1.185145 T T T S
-0.000000 -0.500000 1.513151 T T T S
