Zn2 O2
1.0
2.608000 0.000000 0.000000
0.000000 2.608000 0.000000
0.000000 0.000000 8.912000
Zn O Zn O
1 1 1 1
Selective dynamics
direct
0.000000 0.000000 0.280521 F F F Zn
0.500000 0.500000 0.426840 F F F O
0.000000 0.000000 0.573160 T T T Zn
0.500000 0.500000 0.719479 T T T O
