Mn1 Ga1 Fe2 S2 O3
1.0
-3.713298 0.000000 -0.000000
-0.000000 -3.713298 -0.000000
0.000000 0.000000 16.856649
Mn Ga O Fe S
1 1 3 2 2
Selective dynamics
direct
0.500000 0.500000 0.555072 T T T Mn
0.000000 0.000000 0.444928 F F F Ga
1.000000 0.500000 0.555072 T T T O
0.500000 0.500000 0.444928 F F F O
0.500000 1.000000 0.555072 T T T O
1.000000 0.500000 0.733043 T T T Fe
0.500000 0.000000 0.733043 T T T Fe
1.000000 0.000000 0.804903 T T T S
0.500000 0.500000 0.984761 T T T S
