Mn1 Ga1 O3
1.0
-3.713298 0.000000 -0.000000
-0.000000 -3.713298 -0.000000
0.000000 0.000000 2.856649
Mn Ga O
1 1 3
direct
0.500000 0.500000 0.824970 Mn
0.000000 0.000000 0.175030 Ga
1.000000 0.500000 0.824970 O
0.500000 0.500000 0.175030 O
0.500000 1.000000 0.824970 O
