Bi-hex-monolayer buckled                
   1.00000000000000     
     4.5984492302000000    0.0000000000000000    0.0000000000000000
    -2.2992248535000002    3.9823742643000002    0.0000000000000000
     0.0000000000000000    0.0000000000000000   19.9906578064000016
   Bi
     2
Direct
  0.6666669112832341  0.3333330807640826  0.0591371638160039
  0.0000000737167651 -0.0000000947640806  0.1408003251839959