Bi : new structure relaxed with-SOC: enc
   1.00000000000000     
     6.7219493930619594   -0.0768534881648675    0.0000390621143430
    -0.3929499014577116    6.7096938349227013   -0.0001027670985682
     0.0000901975451701   -0.0002396179673406   15.9809252804786173
   Bi
     8
Direct
  0.9678966573180398  0.4642832540144503  0.3728358152818194
  0.5076446312991573  0.9238800775320091  0.5650304801355183
  0.9677385984193729  0.9641617201166898  0.5919472397874995
  0.4677369561971214  0.4641598696885413  0.5919446048924027
  0.0076426709866974  0.4238811926568123  0.5650299977757093
  0.5078120886493709  0.4240089904313264  0.3997439133796454
  0.4678980670253133  0.9642816558463884  0.3728363027073646
  0.0078141135441330  0.9240098763533394  0.3997463557949608