Bi                                      
   1.00000000000000     
     7.9549800456945503    0.0000000000000000    0.0000000000000000
     3.2315231457728899    7.2576232360733801    0.0000000000000000
     0.0000000000000696    0.0000000000745908   15.9999999999973994
   Bi
     8
Direct
  0.7664584420751895  0.5962400274584650  0.2456693992493717
  0.5352158257248724  0.8654542320041836  0.3792506745468557
  0.8429608172235837  0.0196015094876615  0.3792828383951686
  0.3429621236722289  0.5196000399727055  0.3792828488692649
  0.0352142662034074  0.3654563879985853  0.3792511570234495
  0.6121335458623834  0.2882820317295945  0.2457052831607238
  0.2664576453130168  0.0962411094567000  0.2456703599271597
  0.1121338445771004  0.7882824314516774  0.2457060861131235