Bi                                      
   1.00000000000000     
     7.6126146218904900    0.0000000000000000    0.0000000000000000
     2.0862615477972399    7.3213252287930199    0.0000000000000000
    -0.0000000000000080   -0.0000000000220573   15.9999999999999005
   Bi
     8
Direct
  0.8142119185033941  0.5675929431881261  0.2728709121156470
  0.5630712743488163  0.8177178380674925  0.4029482870984827
  0.8142285789356120  0.0675777986534600  0.3204914037393640
  0.3142371327844475  0.5675611260298137  0.3198527791706793
  0.0652230302552447  0.3167199334815199  0.4029256880432879
  0.5651418163336925  0.3169038655087150  0.1896682013867162
  0.3142409832319672  0.0675656220595330  0.2720637846258107
  0.0631813227912361  0.8175187887053310  0.1896802224907282