Bi                                      
   1.00000000000000     
     3.5604975763265898    0.0000000000000000    0.0000000000000000
     0.3335046958143570    5.7681304983036803    0.0000000000000000
     0.1633458483930420   -0.2222944403619280   16.4967612984092007
   Bi
     4
Direct
  0.0776342604590326  0.5872386030273536  0.3966246235609103
  0.5758780707009973  0.0872733810077108  0.4035746019776337
  0.0809563794477333  0.5776023945416746  0.2050243331380713
  0.5823064753064047  0.0780530050359933  0.2119731753110479