Mn1 Ga1 Fe2 S2 O3
1.0
-3.713298 0.000000 -0.000000
-0.000000 -3.713298 -0.000000
0.000000 0.000000 11.856649
Mn Ga O Fe S
1 1 3 2 2
Selective dynamics
direct
0.500000 0.500000 0.578296 T T T Mn
0.000000 0.000000 0.421704 T T T Ga
1.000000 0.500000 0.578296 T T T O
0.500000 0.500000 0.421704 T T T O
0.500000 1.000000 0.578296 T T T O
0.000000 0.500000 0.831318 T T T Fe
-0.500000 0.000000 0.831318 T T T Fe
0.000000 0.000000 0.933482 T T T S
-0.500000 0.500000 1.189186 T T T S
