Mn1 Ga1 O3
1.0
3.713298 0.000000 0.000000
0.000000 3.713298 0.000000
0.000000 0.000000 2.856649
Mn Ga O
1 1 3
Selective dynamics
direct
0.500000 0.500000 0.824970 T T T Mn
0.000000 0.000000 0.175030 F F F Ga
0.000000 0.500000 0.824970 F F F O
0.500000 0.500000 0.175030 F F F O
0.500000 0.000000 0.824970 F F F O
