V3 Fe2 Ge3 Se2 O9
1.0
-3.712391 0.000000 -0.000000
-0.000000 -3.712391 -0.000000
0.000000 0.000000 21.758342
V Fe Ge Se O
3 2 3 2 9
direct
1.000000 1.000000 0.114898 V
1.000000 1.000000 0.285518 V
1.000000 1.000000 0.456137 V
1.000000 1.000000 0.679325 Fe
0.500000 0.500000 0.679325 Fe
0.500000 0.500000 0.200208 Ge
0.500000 0.500000 0.370827 Ge
0.500000 0.500000 0.541446 Ge
1.000000 0.500000 0.885102 Se
0.500000 1.000000 0.742602 Se
0.500000 0.500000 0.114898 O
1.000000 0.500000 0.200208 O
0.500000 1.000000 0.200208 O
0.500000 0.500000 0.285518 O
1.000000 0.500000 0.370827 O
0.500000 1.000000 0.370827 O
0.500000 0.500000 0.456137 O
1.000000 0.500000 0.541446 O
0.500000 1.000000 0.541446 O
