Fe2 Se2
1.0
-3.712391 0.000000 -0.000000
-0.000000 -3.712391 -0.000000
0.000000 0.000000 5.854194
Fe Se
2 2
direct
0.000000 0.000000 0.000000 Fe
0.500000 0.500000 0.000000 Fe
0.000000 0.500000 0.764815 Se
0.500000 0.000000 0.235185 Se
