V3 Fe2 Ge3 Se2 O9
1.0
3.712391 0.000000 0.000000
0.000000 3.712391 0.000000
0.000000 0.000000 21.758342
V Fe Ge Se O
3 2 3 2 9
Selective dynamics
direct
0.000000 0.000000 0.114898 F F F V
0.000000 0.000000 0.285518 F F F V
0.000000 0.000000 0.456137 F F F V
0.000000 0.000000 0.679325 F F F Fe
0.500000 0.500000 0.679325 F F F Fe
0.500000 0.500000 0.200208 F F F Ge
0.500000 0.500000 0.370827 F F F Ge
0.500000 0.500000 0.541446 F F F Ge
0.000000 0.500000 0.885102 T T T Se
0.500000 0.000000 0.742602 T T T Se
0.500000 0.500000 0.114898 F F F O
0.000000 0.500000 0.200208 F F F O
0.500000 0.000000 0.200208 F F F O
0.500000 0.500000 0.285518 F F F O
0.000000 0.500000 0.370827 F F F O
0.500000 0.000000 0.370827 F F F O
0.500000 0.500000 0.456137 F F F O
0.000000 0.500000 0.541446 F F F O
0.500000 0.000000 0.541446 F F F O
