Al4 As4
1.0
5.620000 0.000000 0.000000
0.000000 5.620000 0.000000
0.000000 0.000000 9.215000
Al As
4 4
Selective dynamics
direct
0.000000 0.000000 0.271297 F F F Al
0.000000 0.500000 0.576234 T T T Al
0.500000 0.000000 0.576234 T T T Al
0.500000 0.500000 0.271297 F F F Al
0.250000 0.250000 0.728703 T T T As
0.250000 0.750000 0.423766 F F F As
0.750000 0.250000 0.423766 F F F As
0.750000 0.750000 0.728703 T T T As
