Mn2 Ga2 O6
1.0
3.713298 0.000000 0.000000
0.000000 3.713298 0.000000
0.000000 0.000000 15.569947
Mn Ga O Mn Ga O
1 1 3 1 1 3
Selective dynamics
direct
0.500000 0.500000 0.440377 F F F Mn
0.000000 0.000000 0.321131 F F F Ga
0.000000 0.500000 0.440377 F F F O
0.500000 0.500000 0.321131 F F F O
0.500000 0.000000 0.440377 F F F O
0.500000 0.500000 0.678869 T T T Mn
0.000000 0.000000 0.559623 T T T Ga
0.000000 0.500000 0.678869 T T T O
0.500000 0.500000 0.559623 T T T O
0.500000 0.000000 0.678869 T T T O
