Zn2 O2
1.0
2.608000 0.000000 0.000000
0.000000 2.608000 0.000000
0.000000 0.000000 18.912000
Zn O Zn O
1 1 1 1
Selective dynamics
direct
0.000000 0.000000 0.396574 F F F Zn
0.500000 0.500000 0.465525 F F F O
0.000000 0.000000 0.534475 T T T Zn
0.500000 0.500000 0.603426 T T T O
